data/lp_files/q3/87_3.lp
\ Model foo
\ LP format - for model browsing. Use MPS format to capture full model detail.
Minimize
  z
Subject To
 allocateEach[1]: x[1,1] + x[2,1] + x[3,1] + x[4,1] + x[5,1] = 1
 allocateEach[2]: x[1,2] + x[2,2] + x[3,2] + x[4,2] + x[5,2] = 1
 allocateEach[3]: x[1,3] + x[2,3] + x[3,3] + x[4,3] + x[5,3] = 1
 allocateEach[4]: x[1,4] + x[2,4] + x[3,4] + x[4,4] + x[5,4] = 1
 allocateEach[5]: x[1,5] + x[2,5] + x[3,5] + x[4,5] + x[5,5] = 1
 allocateEach[6]: x[1,6] + x[2,6] + x[3,6] + x[4,6] + x[5,6] = 1
 allocateEach[7]: x[1,7] + x[2,7] + x[3,7] + x[4,7] + x[5,7] = 1
 allocateAllCash: cashProportion[1] + cashProportion[2] + cashProportion[3]
   + cashProportion[4] + cashProportion[5] = 1
 findWorstP[1,2]: z + 0.0608069076647107 cashProportion[1]
   - 0.0608069076647107 cashProportion[2] + 0.2145875771487641 x[1,1]
   + 0.2978018302879207 x[1,2] + 0.00802651181174181 x[1,3]
   + 0.0652154084704022 x[1,4] + 0.1040710224681524 x[1,5]
   + 0.0661579155392052 x[1,6] + 0.1833328266091028 x[1,7]
   - 0.2145875771487641 x[2,1] - 0.2978018302879207 x[2,2]
   - 0.00802651181174181 x[2,3] - 0.0652154084704022 x[2,4]
   - 0.1040710224681524 x[2,5] - 0.0661579155392052 x[2,6]
   - 0.1833328266091028 x[2,7] >= 0
 findWorstP[1,3]: z + 0.0608069076647107 cashProportion[1]
   - 0.0608069076647107 cashProportion[3] + 0.2145875771487641 x[1,1]
   + 0.2978018302879207 x[1,2] + 0.00802651181174181 x[1,3]
   + 0.0652154084704022 x[1,4] + 0.1040710224681524 x[1,5]
   + 0.0661579155392052 x[1,6] + 0.1833328266091028 x[1,7]
   - 0.2145875771487641 x[3,1] - 0.2978018302879207 x[3,2]
   - 0.00802651181174181 x[3,3] - 0.0652154084704022 x[3,4]
   - 0.1040710224681524 x[3,5] - 0.0661579155392052 x[3,6]
   - 0.1833328266091028 x[3,7] >= 0
 findWorstP[1,4]: z + 0.0608069076647107 cashProportion[1]
   - 0.0608069076647107 cashProportion[4] + 0.2145875771487641 x[1,1]
   + 0.2978018302879207 x[1,2] + 0.00802651181174181 x[1,3]
   + 0.0652154084704022 x[1,4] + 0.1040710224681524 x[1,5]
   + 0.0661579155392052 x[1,6] + 0.1833328266091028 x[1,7]
   - 0.2145875771487641 x[4,1] - 0.2978018302879207 x[4,2]
   - 0.00802651181174181 x[4,3] - 0.0652154084704022 x[4,4]
   - 0.1040710224681524 x[4,5] - 0.0661579155392052 x[4,6]
   - 0.1833328266091028 x[4,7] >= 0
 findWorstP[1,5]: z + 0.0608069076647107 cashProportion[1]
   - 0.0608069076647107 cashProportion[5] + 0.2145875771487641 x[1,1]
   + 0.2978018302879207 x[1,2] + 0.00802651181174181 x[1,3]
   + 0.0652154084704022 x[1,4] + 0.1040710224681524 x[1,5]
   + 0.0661579155392052 x[1,6] + 0.1833328266091028 x[1,7]
   - 0.2145875771487641 x[5,1] - 0.2978018302879207 x[5,2]
   - 0.00802651181174181 x[5,3] - 0.0652154084704022 x[5,4]
   - 0.1040710224681524 x[5,5] - 0.0661579155392052 x[5,6]
   - 0.1833328266091028 x[5,7] >= 0
 findWorstP[2,1]: z - 0.0475533786675543 cashProportion[1]
   + 0.0475533786675543 cashProportion[2] - 0.191521232583575 x[1,1]
   - 0.2145132911693375 x[1,2] - 0.0161681487469685 x[1,3]
   - 0.2003661610157401 x[1,4] - 0.1281563555090589 x[1,5]
   - 0.173379618621903 x[1,6] - 0.0283418136858624 x[1,7]
   + 0.191521232583575 x[2,1] + 0.2145132911693375 x[2,2]
   + 0.0161681487469685 x[2,3] + 0.2003661610157401 x[2,4]
   + 0.1281563555090589 x[2,5] + 0.173379618621903 x[2,6]
   + 0.0283418136858624 x[2,7] >= 0
 findWorstP[2,3]: z + 0.0475533786675543 cashProportion[2]
   - 0.0475533786675543 cashProportion[3] + 0.191521232583575 x[2,1]
   + 0.2145132911693375 x[2,2] + 0.0161681487469685 x[2,3]
   + 0.2003661610157401 x[2,4] + 0.1281563555090589 x[2,5]
   + 0.173379618621903 x[2,6] + 0.0283418136858624 x[2,7]
   - 0.191521232583575 x[3,1] - 0.2145132911693375 x[3,2]
   - 0.0161681487469685 x[3,3] - 0.2003661610157401 x[3,4]
   - 0.1281563555090589 x[3,5] - 0.173379618621903 x[3,6]
   - 0.0283418136858624 x[3,7] >= 0
 findWorstP[2,4]: z + 0.0475533786675543 cashProportion[2]
   - 0.0475533786675543 cashProportion[4] + 0.191521232583575 x[2,1]
   + 0.2145132911693375 x[2,2] + 0.0161681487469685 x[2,3]
   + 0.2003661610157401 x[2,4] + 0.1281563555090589 x[2,5]
   + 0.173379618621903 x[2,6] + 0.0283418136858624 x[2,7]
   - 0.191521232583575 x[4,1] - 0.2145132911693375 x[4,2]
   - 0.0161681487469685 x[4,3] - 0.2003661610157401 x[4,4]
   - 0.1281563555090589 x[4,5] - 0.173379618621903 x[4,6]
   - 0.0283418136858624 x[4,7] >= 0
 findWorstP[2,5]: z + 0.0475533786675543 cashProportion[2]
   - 0.0475533786675543 cashProportion[5] + 0.191521232583575 x[2,1]
   + 0.2145132911693375 x[2,2] + 0.0161681487469685 x[2,3]
   + 0.2003661610157401 x[2,4] + 0.1281563555090589 x[2,5]
   + 0.173379618621903 x[2,6] + 0.0283418136858624 x[2,7]
   - 0.191521232583575 x[5,1] - 0.2145132911693375 x[5,2]
   - 0.0161681487469685 x[5,3] - 0.2003661610157401 x[5,4]
   - 0.1281563555090589 x[5,5] - 0.173379618621903 x[5,6]
   - 0.0283418136858624 x[5,7] >= 0
 findWorstP[3,1]: z - 0.0545419836919469 cashProportion[1]
   + 0.0545419836919469 cashProportion[3] - 0.0496059341678257 x[1,1]
   - 0.1583081076658758 x[1,2] - 0.267964765878535 x[1,3]
   - 0.0363249611388366 x[1,4] - 0.1377457798140118 x[1,5]
   - 0.2714009108511276 x[1,6] - 0.0241075567918405 x[1,7]
   + 0.0496059341678257 x[3,1] + 0.1583081076658758 x[3,2]
   + 0.267964765878535 x[3,3] + 0.0363249611388366 x[3,4]
   + 0.1377457798140118 x[3,5] + 0.2714009108511276 x[3,6]
   + 0.0241075567918405 x[3,7] >= 0
 findWorstP[3,2]: z - 0.0545419836919469 cashProportion[2]
   + 0.0545419836919469 cashProportion[3] - 0.0496059341678257 x[2,1]
   - 0.1583081076658758 x[2,2] - 0.267964765878535 x[2,3]
   - 0.0363249611388366 x[2,4] - 0.1377457798140118 x[2,5]
   - 0.2714009108511276 x[2,6] - 0.0241075567918405 x[2,7]
   + 0.0496059341678257 x[3,1] + 0.1583081076658758 x[3,2]
   + 0.267964765878535 x[3,3] + 0.0363249611388366 x[3,4]
   + 0.1377457798140118 x[3,5] + 0.2714009108511276 x[3,6]
   + 0.0241075567918405 x[3,7] >= 0
 findWorstP[3,4]: z + 0.0545419836919469 cashProportion[3]
   - 0.0545419836919469 cashProportion[4] + 0.0496059341678257 x[3,1]
   + 0.1583081076658758 x[3,2] + 0.267964765878535 x[3,3]
   + 0.0363249611388366 x[3,4] + 0.1377457798140118 x[3,5]
   + 0.2714009108511276 x[3,6] + 0.0241075567918405 x[3,7]
   - 0.0496059341678257 x[4,1] - 0.1583081076658758 x[4,2]
   - 0.267964765878535 x[4,3] - 0.0363249611388366 x[4,4]
   - 0.1377457798140118 x[4,5] - 0.2714009108511276 x[4,6]
   - 0.0241075567918405 x[4,7] >= 0
 findWorstP[3,5]: z + 0.0545419836919469 cashProportion[3]
   - 0.0545419836919469 cashProportion[5] + 0.0496059341678257 x[3,1]
   + 0.1583081076658758 x[3,2] + 0.267964765878535 x[3,3]
   + 0.0363249611388366 x[3,4] + 0.1377457798140118 x[3,5]
   + 0.2714009108511276 x[3,6] + 0.0241075567918405 x[3,7]
   - 0.0496059341678257 x[5,1] - 0.1583081076658758 x[5,2]
   - 0.267964765878535 x[5,3] - 0.0363249611388366 x[5,4]
   - 0.1377457798140118 x[5,5] - 0.2714009108511276 x[5,6]
   - 0.0241075567918405 x[5,7] >= 0
 findWorstP[4,1]: z - 0.0398867217103426 cashProportion[1]
   + 0.0398867217103426 cashProportion[4] - 0.1994336085517131 x[1,1]
   - 0.1687008894738941 x[1,2] - 0.1685612859479079 x[1,3]
   - 0.0308324358820948 x[1,4] - 0.1783734194886522 x[1,5]
   - 0.1035459295600495 x[1,6] - 0.1106657093853456 x[1,7]
   + 0.1994336085517131 x[4,1] + 0.1687008894738941 x[4,2]
   + 0.1685612859479079 x[4,3] + 0.0308324358820948 x[4,4]
   + 0.1783734194886522 x[4,5] + 0.1035459295600495 x[4,6]
   + 0.1106657093853456 x[4,7] >= 0
 findWorstP[4,2]: z - 0.0398867217103426 cashProportion[2]
   + 0.0398867217103426 cashProportion[4] - 0.1994336085517131 x[2,1]
   - 0.1687008894738941 x[2,2] - 0.1685612859479079 x[2,3]
   - 0.0308324358820948 x[2,4] - 0.1783734194886522 x[2,5]
   - 0.1035459295600495 x[2,6] - 0.1106657093853456 x[2,7]
   + 0.1994336085517131 x[4,1] + 0.1687008894738941 x[4,2]
   + 0.1685612859479079 x[4,3] + 0.0308324358820948 x[4,4]
   + 0.1783734194886522 x[4,5] + 0.1035459295600495 x[4,6]
   + 0.1106657093853456 x[4,7] >= 0
 findWorstP[4,3]: z - 0.0398867217103426 cashProportion[3]
   + 0.0398867217103426 cashProportion[4] - 0.1994336085517131 x[3,1]
   - 0.1687008894738941 x[3,2] - 0.1685612859479079 x[3,3]
   - 0.0308324358820948 x[3,4] - 0.1783734194886522 x[3,5]
   - 0.1035459295600495 x[3,6] - 0.1106657093853456 x[3,7]
   + 0.1994336085517131 x[4,1] + 0.1687008894738941 x[4,2]
   + 0.1685612859479079 x[4,3] + 0.0308324358820948 x[4,4]
   + 0.1783734194886522 x[4,5] + 0.1035459295600495 x[4,6]
   + 0.1106657093853456 x[4,7] >= 0
 findWorstP[4,5]: z + 0.0398867217103426 cashProportion[4]
   - 0.0398867217103426 cashProportion[5] + 0.1994336085517131 x[4,1]
   + 0.1687008894738941 x[4,2] + 0.1685612859479079 x[4,3]
   + 0.0308324358820948 x[4,4] + 0.1783734194886522 x[4,5]
   + 0.1035459295600495 x[4,6] + 0.1106657093853456 x[4,7]
   - 0.1994336085517131 x[5,1] - 0.1687008894738941 x[5,2]
   - 0.1685612859479079 x[5,3] - 0.0308324358820948 x[5,4]
   - 0.1783734194886522 x[5,5] - 0.1035459295600495 x[5,6]
   - 0.1106657093853456 x[5,7] >= 0
 findWorstP[5,1]: z - 0.0590911776871713 cashProportion[1]
   + 0.0590911776871713 cashProportion[5] - 0.1444188382674467 x[1,1]
   - 0.00289546770667139 x[1,2] - 0.0537138805176387 x[1,3]
   - 0.2763398924540566 x[1,4] - 0.1554984340837913 x[1,5]
   - 0.1414347337942445 x[1,6] - 0.1666075754889795 x[1,7]
   + 0.1444188382674467 x[5,1] + 0.00289546770667139 x[5,2]
   + 0.0537138805176387 x[5,3] + 0.2763398924540566 x[5,4]
   + 0.1554984340837913 x[5,5] + 0.1414347337942445 x[5,6]
   + 0.1666075754889795 x[5,7] >= 0
 findWorstP[5,2]: z - 0.0590911776871713 cashProportion[2]
   + 0.0590911776871713 cashProportion[5] - 0.1444188382674467 x[2,1]
   - 0.00289546770667139 x[2,2] - 0.0537138805176387 x[2,3]
   - 0.2763398924540566 x[2,4] - 0.1554984340837913 x[2,5]
   - 0.1414347337942445 x[2,6] - 0.1666075754889795 x[2,7]
   + 0.1444188382674467 x[5,1] + 0.00289546770667139 x[5,2]
   + 0.0537138805176387 x[5,3] + 0.2763398924540566 x[5,4]
   + 0.1554984340837913 x[5,5] + 0.1414347337942445 x[5,6]
   + 0.1666075754889795 x[5,7] >= 0
 findWorstP[5,3]: z - 0.0590911776871713 cashProportion[3]
   + 0.0590911776871713 cashProportion[5] - 0.1444188382674467 x[3,1]
   - 0.00289546770667139 x[3,2] - 0.0537138805176387 x[3,3]
   - 0.2763398924540566 x[3,4] - 0.1554984340837913 x[3,5]
   - 0.1414347337942445 x[3,6] - 0.1666075754889795 x[3,7]
   + 0.1444188382674467 x[5,1] + 0.00289546770667139 x[5,2]
   + 0.0537138805176387 x[5,3] + 0.2763398924540566 x[5,4]
   + 0.1554984340837913 x[5,5] + 0.1414347337942445 x[5,6]
   + 0.1666075754889795 x[5,7] >= 0
 findWorstP[5,4]: z - 0.0590911776871713 cashProportion[4]
   + 0.0590911776871713 cashProportion[5] - 0.1444188382674467 x[4,1]
   - 0.00289546770667139 x[4,2] - 0.0537138805176387 x[4,3]
   - 0.2763398924540566 x[4,4] - 0.1554984340837913 x[4,5]
   - 0.1414347337942445 x[4,6] - 0.1666075754889795 x[4,7]
   + 0.1444188382674467 x[5,1] + 0.00289546770667139 x[5,2]
   + 0.0537138805176387 x[5,3] + 0.2763398924540566 x[5,4]
   + 0.1554984340837913 x[5,5] + 0.1414347337942445 x[5,6]
   + 0.1666075754889795 x[5,7] >= 0
Bounds
 z <= 1
 -infinity <= cashProportion[1] <= 1
 -infinity <= cashProportion[2] <= 1
 -infinity <= cashProportion[3] <= 1
 -infinity <= cashProportion[4] <= 1
 -infinity <= cashProportion[5] <= 1
Binaries
 x[1,1] x[1,2] x[1,3] x[1,4] x[1,5] x[1,6] x[1,7] x[2,1] x[2,2] x[2,3]
 x[2,4] x[2,5] x[2,6] x[2,7] x[3,1] x[3,2] x[3,3] x[3,4] x[3,5] x[3,6]
 x[3,7] x[4,1] x[4,2] x[4,3] x[4,4] x[4,5] x[4,6] x[4,7] x[5,1] x[5,2]
 x[5,3] x[5,4] x[5,5] x[5,6] x[5,7]
End
