data/mps_files/q3/87_3.mps
NAME foo
ROWS
 N  OBJ
 E  allocateEach[1]
 E  allocateEach[2]
 E  allocateEach[3]
 E  allocateEach[4]
 E  allocateEach[5]
 E  allocateEach[6]
 E  allocateEach[7]
 E  allocateAllCash
 G  findWorstP[1,2]
 G  findWorstP[1,3]
 G  findWorstP[1,4]
 G  findWorstP[1,5]
 G  findWorstP[2,1]
 G  findWorstP[2,3]
 G  findWorstP[2,4]
 G  findWorstP[2,5]
 G  findWorstP[3,1]
 G  findWorstP[3,2]
 G  findWorstP[3,4]
 G  findWorstP[3,5]
 G  findWorstP[4,1]
 G  findWorstP[4,2]
 G  findWorstP[4,3]
 G  findWorstP[4,5]
 G  findWorstP[5,1]
 G  findWorstP[5,2]
 G  findWorstP[5,3]
 G  findWorstP[5,4]
COLUMNS
    z         OBJ       1
    z         findWorstP[1,2]  1
    z         findWorstP[1,3]  1
    z         findWorstP[1,4]  1
    z         findWorstP[1,5]  1
    z         findWorstP[2,1]  1
    z         findWorstP[2,3]  1
    z         findWorstP[2,4]  1
    z         findWorstP[2,5]  1
    z         findWorstP[3,1]  1
    z         findWorstP[3,2]  1
    z         findWorstP[3,4]  1
    z         findWorstP[3,5]  1
    z         findWorstP[4,1]  1
    z         findWorstP[4,2]  1
    z         findWorstP[4,3]  1
    z         findWorstP[4,5]  1
    z         findWorstP[5,1]  1
    z         findWorstP[5,2]  1
    z         findWorstP[5,3]  1
    z         findWorstP[5,4]  1
    cashProportion[1]  allocateAllCash  1
    cashProportion[1]  findWorstP[1,2]  6.0806907664710710e-02
    cashProportion[1]  findWorstP[1,3]  6.0806907664710710e-02
    cashProportion[1]  findWorstP[1,4]  6.0806907664710710e-02
    cashProportion[1]  findWorstP[1,5]  6.0806907664710710e-02
    cashProportion[1]  findWorstP[2,1]  -4.7553378667554325e-02
    cashProportion[1]  findWorstP[3,1]  -5.4541983691946877e-02
    cashProportion[1]  findWorstP[4,1]  -3.9886721710342632e-02
    cashProportion[1]  findWorstP[5,1]  -5.9091177687171308e-02
    cashProportion[2]  allocateAllCash  1
    cashProportion[2]  findWorstP[1,2]  -6.0806907664710710e-02
    cashProportion[2]  findWorstP[2,1]  4.7553378667554325e-02
    cashProportion[2]  findWorstP[2,3]  4.7553378667554325e-02
    cashProportion[2]  findWorstP[2,4]  4.7553378667554325e-02
    cashProportion[2]  findWorstP[2,5]  4.7553378667554325e-02
    cashProportion[2]  findWorstP[3,2]  -5.4541983691946877e-02
    cashProportion[2]  findWorstP[4,2]  -3.9886721710342632e-02
    cashProportion[2]  findWorstP[5,2]  -5.9091177687171308e-02
    cashProportion[3]  allocateAllCash  1
    cashProportion[3]  findWorstP[1,3]  -6.0806907664710710e-02
    cashProportion[3]  findWorstP[2,3]  -4.7553378667554325e-02
    cashProportion[3]  findWorstP[3,1]  5.4541983691946877e-02
    cashProportion[3]  findWorstP[3,2]  5.4541983691946877e-02
    cashProportion[3]  findWorstP[3,4]  5.4541983691946877e-02
    cashProportion[3]  findWorstP[3,5]  5.4541983691946877e-02
    cashProportion[3]  findWorstP[4,3]  -3.9886721710342632e-02
    cashProportion[3]  findWorstP[5,3]  -5.9091177687171308e-02
    cashProportion[4]  allocateAllCash  1
    cashProportion[4]  findWorstP[1,4]  -6.0806907664710710e-02
    cashProportion[4]  findWorstP[2,4]  -4.7553378667554325e-02
    cashProportion[4]  findWorstP[3,4]  -5.4541983691946877e-02
    cashProportion[4]  findWorstP[4,1]  3.9886721710342632e-02
    cashProportion[4]  findWorstP[4,2]  3.9886721710342632e-02
    cashProportion[4]  findWorstP[4,3]  3.9886721710342632e-02
    cashProportion[4]  findWorstP[4,5]  3.9886721710342632e-02
    cashProportion[4]  findWorstP[5,4]  -5.9091177687171308e-02
    cashProportion[5]  allocateAllCash  1
    cashProportion[5]  findWorstP[1,5]  -6.0806907664710710e-02
    cashProportion[5]  findWorstP[2,5]  -4.7553378667554325e-02
    cashProportion[5]  findWorstP[3,5]  -5.4541983691946877e-02
    cashProportion[5]  findWorstP[4,5]  -3.9886721710342632e-02
    cashProportion[5]  findWorstP[5,1]  5.9091177687171308e-02
    cashProportion[5]  findWorstP[5,2]  5.9091177687171308e-02
    cashProportion[5]  findWorstP[5,3]  5.9091177687171308e-02
    cashProportion[5]  findWorstP[5,4]  5.9091177687171308e-02
    MARKER    'MARKER'                 'INTORG'
    x[1,1]    allocateEach[1]  1
    x[1,1]    findWorstP[1,2]  2.1458757714876409e-01
    x[1,1]    findWorstP[1,3]  2.1458757714876409e-01
    x[1,1]    findWorstP[1,4]  2.1458757714876409e-01
    x[1,1]    findWorstP[1,5]  2.1458757714876409e-01
    x[1,1]    findWorstP[2,1]  -0.191521232583575
    x[1,1]    findWorstP[3,1]  -4.9605934167825681e-02
    x[1,1]    findWorstP[4,1]  -1.9943360855171313e-01
    x[1,1]    findWorstP[5,1]  -1.4441883826744667e-01
    x[1,2]    allocateEach[2]  1
    x[1,2]    findWorstP[1,2]  2.9780183028792068e-01
    x[1,2]    findWorstP[1,3]  2.9780183028792068e-01
    x[1,2]    findWorstP[1,4]  2.9780183028792068e-01
    x[1,2]    findWorstP[1,5]  2.9780183028792068e-01
    x[1,2]    findWorstP[2,1]  -2.1451329116933754e-01
    x[1,2]    findWorstP[3,1]  -1.5830810766587580e-01
    x[1,2]    findWorstP[4,1]  -1.6870088947389414e-01
    x[1,2]    findWorstP[5,1]  -2.8954677066713938e-03
    x[1,3]    allocateEach[3]  1
    x[1,3]    findWorstP[1,2]  8.0265118117418127e-03
    x[1,3]    findWorstP[1,3]  8.0265118117418127e-03
    x[1,3]    findWorstP[1,4]  8.0265118117418127e-03
    x[1,3]    findWorstP[1,5]  8.0265118117418127e-03
    x[1,3]    findWorstP[2,1]  -1.6168148746968470e-02
    x[1,3]    findWorstP[3,1]  -2.6796476587853496e-01
    x[1,3]    findWorstP[4,1]  -1.6856128594790792e-01
    x[1,3]    findWorstP[5,1]  -5.3713880517638715e-02
    x[1,4]    allocateEach[4]  1
    x[1,4]    findWorstP[1,2]  6.5215408470402234e-02
    x[1,4]    findWorstP[1,3]  6.5215408470402234e-02
    x[1,4]    findWorstP[1,4]  6.5215408470402234e-02
    x[1,4]    findWorstP[1,5]  6.5215408470402234e-02
    x[1,4]    findWorstP[2,1]  -2.0036616101574012e-01
    x[1,4]    findWorstP[3,1]  -3.6324961138836619e-02
    x[1,4]    findWorstP[4,1]  -3.0832435882094847e-02
    x[1,4]    findWorstP[5,1]  -2.7633989245405660e-01
    x[1,5]    allocateEach[5]  1
    x[1,5]    findWorstP[1,2]  1.0407102246815238e-01
    x[1,5]    findWorstP[1,3]  1.0407102246815238e-01
    x[1,5]    findWorstP[1,4]  1.0407102246815238e-01
    x[1,5]    findWorstP[1,5]  1.0407102246815238e-01
    x[1,5]    findWorstP[2,1]  -1.2815635550905891e-01
    x[1,5]    findWorstP[3,1]  -1.3774577981401182e-01
    x[1,5]    findWorstP[4,1]  -1.7837341948865221e-01
    x[1,5]    findWorstP[5,1]  -1.5549843408379127e-01
    x[1,6]    allocateEach[6]  1
    x[1,6]    findWorstP[1,2]  6.6157915539205248e-02
    x[1,6]    findWorstP[1,3]  6.6157915539205248e-02
    x[1,6]    findWorstP[1,4]  6.6157915539205248e-02
    x[1,6]    findWorstP[1,5]  6.6157915539205248e-02
    x[1,6]    findWorstP[2,1]  -1.7337961862190304e-01
    x[1,6]    findWorstP[3,1]  -2.7140091085112761e-01
    x[1,6]    findWorstP[4,1]  -1.0354592956004946e-01
    x[1,6]    findWorstP[5,1]  -1.4143473379424451e-01
    x[1,7]    allocateEach[7]  1
    x[1,7]    findWorstP[1,2]  1.8333282660910277e-01
    x[1,7]    findWorstP[1,3]  1.8333282660910277e-01
    x[1,7]    findWorstP[1,4]  1.8333282660910277e-01
    x[1,7]    findWorstP[1,5]  1.8333282660910277e-01
    x[1,7]    findWorstP[2,1]  -2.8341813685862374e-02
    x[1,7]    findWorstP[3,1]  -2.4107556791840519e-02
    x[1,7]    findWorstP[4,1]  -1.1066570938534560e-01
    x[1,7]    findWorstP[5,1]  -1.6660757548897948e-01
    x[2,1]    allocateEach[1]  1
    x[2,1]    findWorstP[1,2]  -2.1458757714876409e-01
    x[2,1]    findWorstP[2,1]  0.191521232583575
    x[2,1]    findWorstP[2,3]  0.191521232583575
    x[2,1]    findWorstP[2,4]  0.191521232583575
    x[2,1]    findWorstP[2,5]  0.191521232583575
    x[2,1]    findWorstP[3,2]  -4.9605934167825681e-02
    x[2,1]    findWorstP[4,2]  -1.9943360855171313e-01
    x[2,1]    findWorstP[5,2]  -1.4441883826744667e-01
    x[2,2]    allocateEach[2]  1
    x[2,2]    findWorstP[1,2]  -2.9780183028792068e-01
    x[2,2]    findWorstP[2,1]  2.1451329116933754e-01
    x[2,2]    findWorstP[2,3]  2.1451329116933754e-01
    x[2,2]    findWorstP[2,4]  2.1451329116933754e-01
    x[2,2]    findWorstP[2,5]  2.1451329116933754e-01
    x[2,2]    findWorstP[3,2]  -1.5830810766587580e-01
    x[2,2]    findWorstP[4,2]  -1.6870088947389414e-01
    x[2,2]    findWorstP[5,2]  -2.8954677066713938e-03
    x[2,3]    allocateEach[3]  1
    x[2,3]    findWorstP[1,2]  -8.0265118117418127e-03
    x[2,3]    findWorstP[2,1]  1.6168148746968470e-02
    x[2,3]    findWorstP[2,3]  1.6168148746968470e-02
    x[2,3]    findWorstP[2,4]  1.6168148746968470e-02
    x[2,3]    findWorstP[2,5]  1.6168148746968470e-02
    x[2,3]    findWorstP[3,2]  -2.6796476587853496e-01
    x[2,3]    findWorstP[4,2]  -1.6856128594790792e-01
    x[2,3]    findWorstP[5,2]  -5.3713880517638715e-02
    x[2,4]    allocateEach[4]  1
    x[2,4]    findWorstP[1,2]  -6.5215408470402234e-02
    x[2,4]    findWorstP[2,1]  2.0036616101574012e-01
    x[2,4]    findWorstP[2,3]  2.0036616101574012e-01
    x[2,4]    findWorstP[2,4]  2.0036616101574012e-01
    x[2,4]    findWorstP[2,5]  2.0036616101574012e-01
    x[2,4]    findWorstP[3,2]  -3.6324961138836619e-02
    x[2,4]    findWorstP[4,2]  -3.0832435882094847e-02
    x[2,4]    findWorstP[5,2]  -2.7633989245405660e-01
    x[2,5]    allocateEach[5]  1
    x[2,5]    findWorstP[1,2]  -1.0407102246815238e-01
    x[2,5]    findWorstP[2,1]  1.2815635550905891e-01
    x[2,5]    findWorstP[2,3]  1.2815635550905891e-01
    x[2,5]    findWorstP[2,4]  1.2815635550905891e-01
    x[2,5]    findWorstP[2,5]  1.2815635550905891e-01
    x[2,5]    findWorstP[3,2]  -1.3774577981401182e-01
    x[2,5]    findWorstP[4,2]  -1.7837341948865221e-01
    x[2,5]    findWorstP[5,2]  -1.5549843408379127e-01
    x[2,6]    allocateEach[6]  1
    x[2,6]    findWorstP[1,2]  -6.6157915539205248e-02
    x[2,6]    findWorstP[2,1]  1.7337961862190304e-01
    x[2,6]    findWorstP[2,3]  1.7337961862190304e-01
    x[2,6]    findWorstP[2,4]  1.7337961862190304e-01
    x[2,6]    findWorstP[2,5]  1.7337961862190304e-01
    x[2,6]    findWorstP[3,2]  -2.7140091085112761e-01
    x[2,6]    findWorstP[4,2]  -1.0354592956004946e-01
    x[2,6]    findWorstP[5,2]  -1.4143473379424451e-01
    x[2,7]    allocateEach[7]  1
    x[2,7]    findWorstP[1,2]  -1.8333282660910277e-01
    x[2,7]    findWorstP[2,1]  2.8341813685862374e-02
    x[2,7]    findWorstP[2,3]  2.8341813685862374e-02
    x[2,7]    findWorstP[2,4]  2.8341813685862374e-02
    x[2,7]    findWorstP[2,5]  2.8341813685862374e-02
    x[2,7]    findWorstP[3,2]  -2.4107556791840519e-02
    x[2,7]    findWorstP[4,2]  -1.1066570938534560e-01
    x[2,7]    findWorstP[5,2]  -1.6660757548897948e-01
    x[3,1]    allocateEach[1]  1
    x[3,1]    findWorstP[1,3]  -2.1458757714876409e-01
    x[3,1]    findWorstP[2,3]  -0.191521232583575
    x[3,1]    findWorstP[3,1]  4.9605934167825681e-02
    x[3,1]    findWorstP[3,2]  4.9605934167825681e-02
    x[3,1]    findWorstP[3,4]  4.9605934167825681e-02
    x[3,1]    findWorstP[3,5]  4.9605934167825681e-02
    x[3,1]    findWorstP[4,3]  -1.9943360855171313e-01
    x[3,1]    findWorstP[5,3]  -1.4441883826744667e-01
    x[3,2]    allocateEach[2]  1
    x[3,2]    findWorstP[1,3]  -2.9780183028792068e-01
    x[3,2]    findWorstP[2,3]  -2.1451329116933754e-01
    x[3,2]    findWorstP[3,1]  1.5830810766587580e-01
    x[3,2]    findWorstP[3,2]  1.5830810766587580e-01
    x[3,2]    findWorstP[3,4]  1.5830810766587580e-01
    x[3,2]    findWorstP[3,5]  1.5830810766587580e-01
    x[3,2]    findWorstP[4,3]  -1.6870088947389414e-01
    x[3,2]    findWorstP[5,3]  -2.8954677066713938e-03
    x[3,3]    allocateEach[3]  1
    x[3,3]    findWorstP[1,3]  -8.0265118117418127e-03
    x[3,3]    findWorstP[2,3]  -1.6168148746968470e-02
    x[3,3]    findWorstP[3,1]  2.6796476587853496e-01
    x[3,3]    findWorstP[3,2]  2.6796476587853496e-01
    x[3,3]    findWorstP[3,4]  2.6796476587853496e-01
    x[3,3]    findWorstP[3,5]  2.6796476587853496e-01
    x[3,3]    findWorstP[4,3]  -1.6856128594790792e-01
    x[3,3]    findWorstP[5,3]  -5.3713880517638715e-02
    x[3,4]    allocateEach[4]  1
    x[3,4]    findWorstP[1,3]  -6.5215408470402234e-02
    x[3,4]    findWorstP[2,3]  -2.0036616101574012e-01
    x[3,4]    findWorstP[3,1]  3.6324961138836619e-02
    x[3,4]    findWorstP[3,2]  3.6324961138836619e-02
    x[3,4]    findWorstP[3,4]  3.6324961138836619e-02
    x[3,4]    findWorstP[3,5]  3.6324961138836619e-02
    x[3,4]    findWorstP[4,3]  -3.0832435882094847e-02
    x[3,4]    findWorstP[5,3]  -2.7633989245405660e-01
    x[3,5]    allocateEach[5]  1
    x[3,5]    findWorstP[1,3]  -1.0407102246815238e-01
    x[3,5]    findWorstP[2,3]  -1.2815635550905891e-01
    x[3,5]    findWorstP[3,1]  1.3774577981401182e-01
    x[3,5]    findWorstP[3,2]  1.3774577981401182e-01
    x[3,5]    findWorstP[3,4]  1.3774577981401182e-01
    x[3,5]    findWorstP[3,5]  1.3774577981401182e-01
    x[3,5]    findWorstP[4,3]  -1.7837341948865221e-01
    x[3,5]    findWorstP[5,3]  -1.5549843408379127e-01
    x[3,6]    allocateEach[6]  1
    x[3,6]    findWorstP[1,3]  -6.6157915539205248e-02
    x[3,6]    findWorstP[2,3]  -1.7337961862190304e-01
    x[3,6]    findWorstP[3,1]  2.7140091085112761e-01
    x[3,6]    findWorstP[3,2]  2.7140091085112761e-01
    x[3,6]    findWorstP[3,4]  2.7140091085112761e-01
    x[3,6]    findWorstP[3,5]  2.7140091085112761e-01
    x[3,6]    findWorstP[4,3]  -1.0354592956004946e-01
    x[3,6]    findWorstP[5,3]  -1.4143473379424451e-01
    x[3,7]    allocateEach[7]  1
    x[3,7]    findWorstP[1,3]  -1.8333282660910277e-01
    x[3,7]    findWorstP[2,3]  -2.8341813685862374e-02
    x[3,7]    findWorstP[3,1]  2.4107556791840519e-02
    x[3,7]    findWorstP[3,2]  2.4107556791840519e-02
    x[3,7]    findWorstP[3,4]  2.4107556791840519e-02
    x[3,7]    findWorstP[3,5]  2.4107556791840519e-02
    x[3,7]    findWorstP[4,3]  -1.1066570938534560e-01
    x[3,7]    findWorstP[5,3]  -1.6660757548897948e-01
    x[4,1]    allocateEach[1]  1
    x[4,1]    findWorstP[1,4]  -2.1458757714876409e-01
    x[4,1]    findWorstP[2,4]  -0.191521232583575
    x[4,1]    findWorstP[3,4]  -4.9605934167825681e-02
    x[4,1]    findWorstP[4,1]  1.9943360855171313e-01
    x[4,1]    findWorstP[4,2]  1.9943360855171313e-01
    x[4,1]    findWorstP[4,3]  1.9943360855171313e-01
    x[4,1]    findWorstP[4,5]  1.9943360855171313e-01
    x[4,1]    findWorstP[5,4]  -1.4441883826744667e-01
    x[4,2]    allocateEach[2]  1
    x[4,2]    findWorstP[1,4]  -2.9780183028792068e-01
    x[4,2]    findWorstP[2,4]  -2.1451329116933754e-01
    x[4,2]    findWorstP[3,4]  -1.5830810766587580e-01
    x[4,2]    findWorstP[4,1]  1.6870088947389414e-01
    x[4,2]    findWorstP[4,2]  1.6870088947389414e-01
    x[4,2]    findWorstP[4,3]  1.6870088947389414e-01
    x[4,2]    findWorstP[4,5]  1.6870088947389414e-01
    x[4,2]    findWorstP[5,4]  -2.8954677066713938e-03
    x[4,3]    allocateEach[3]  1
    x[4,3]    findWorstP[1,4]  -8.0265118117418127e-03
    x[4,3]    findWorstP[2,4]  -1.6168148746968470e-02
    x[4,3]    findWorstP[3,4]  -2.6796476587853496e-01
    x[4,3]    findWorstP[4,1]  1.6856128594790792e-01
    x[4,3]    findWorstP[4,2]  1.6856128594790792e-01
    x[4,3]    findWorstP[4,3]  1.6856128594790792e-01
    x[4,3]    findWorstP[4,5]  1.6856128594790792e-01
    x[4,3]    findWorstP[5,4]  -5.3713880517638715e-02
    x[4,4]    allocateEach[4]  1
    x[4,4]    findWorstP[1,4]  -6.5215408470402234e-02
    x[4,4]    findWorstP[2,4]  -2.0036616101574012e-01
    x[4,4]    findWorstP[3,4]  -3.6324961138836619e-02
    x[4,4]    findWorstP[4,1]  3.0832435882094847e-02
    x[4,4]    findWorstP[4,2]  3.0832435882094847e-02
    x[4,4]    findWorstP[4,3]  3.0832435882094847e-02
    x[4,4]    findWorstP[4,5]  3.0832435882094847e-02
    x[4,4]    findWorstP[5,4]  -2.7633989245405660e-01
    x[4,5]    allocateEach[5]  1
    x[4,5]    findWorstP[1,4]  -1.0407102246815238e-01
    x[4,5]    findWorstP[2,4]  -1.2815635550905891e-01
    x[4,5]    findWorstP[3,4]  -1.3774577981401182e-01
    x[4,5]    findWorstP[4,1]  1.7837341948865221e-01
    x[4,5]    findWorstP[4,2]  1.7837341948865221e-01
    x[4,5]    findWorstP[4,3]  1.7837341948865221e-01
    x[4,5]    findWorstP[4,5]  1.7837341948865221e-01
    x[4,5]    findWorstP[5,4]  -1.5549843408379127e-01
    x[4,6]    allocateEach[6]  1
    x[4,6]    findWorstP[1,4]  -6.6157915539205248e-02
    x[4,6]    findWorstP[2,4]  -1.7337961862190304e-01
    x[4,6]    findWorstP[3,4]  -2.7140091085112761e-01
    x[4,6]    findWorstP[4,1]  1.0354592956004946e-01
    x[4,6]    findWorstP[4,2]  1.0354592956004946e-01
    x[4,6]    findWorstP[4,3]  1.0354592956004946e-01
    x[4,6]    findWorstP[4,5]  1.0354592956004946e-01
    x[4,6]    findWorstP[5,4]  -1.4143473379424451e-01
    x[4,7]    allocateEach[7]  1
    x[4,7]    findWorstP[1,4]  -1.8333282660910277e-01
    x[4,7]    findWorstP[2,4]  -2.8341813685862374e-02
    x[4,7]    findWorstP[3,4]  -2.4107556791840519e-02
    x[4,7]    findWorstP[4,1]  1.1066570938534560e-01
    x[4,7]    findWorstP[4,2]  1.1066570938534560e-01
    x[4,7]    findWorstP[4,3]  1.1066570938534560e-01
    x[4,7]    findWorstP[4,5]  1.1066570938534560e-01
    x[4,7]    findWorstP[5,4]  -1.6660757548897948e-01
    x[5,1]    allocateEach[1]  1
    x[5,1]    findWorstP[1,5]  -2.1458757714876409e-01
    x[5,1]    findWorstP[2,5]  -0.191521232583575
    x[5,1]    findWorstP[3,5]  -4.9605934167825681e-02
    x[5,1]    findWorstP[4,5]  -1.9943360855171313e-01
    x[5,1]    findWorstP[5,1]  1.4441883826744667e-01
    x[5,1]    findWorstP[5,2]  1.4441883826744667e-01
    x[5,1]    findWorstP[5,3]  1.4441883826744667e-01
    x[5,1]    findWorstP[5,4]  1.4441883826744667e-01
    x[5,2]    allocateEach[2]  1
    x[5,2]    findWorstP[1,5]  -2.9780183028792068e-01
    x[5,2]    findWorstP[2,5]  -2.1451329116933754e-01
    x[5,2]    findWorstP[3,5]  -1.5830810766587580e-01
    x[5,2]    findWorstP[4,5]  -1.6870088947389414e-01
    x[5,2]    findWorstP[5,1]  2.8954677066713938e-03
    x[5,2]    findWorstP[5,2]  2.8954677066713938e-03
    x[5,2]    findWorstP[5,3]  2.8954677066713938e-03
    x[5,2]    findWorstP[5,4]  2.8954677066713938e-03
    x[5,3]    allocateEach[3]  1
    x[5,3]    findWorstP[1,5]  -8.0265118117418127e-03
    x[5,3]    findWorstP[2,5]  -1.6168148746968470e-02
    x[5,3]    findWorstP[3,5]  -2.6796476587853496e-01
    x[5,3]    findWorstP[4,5]  -1.6856128594790792e-01
    x[5,3]    findWorstP[5,1]  5.3713880517638715e-02
    x[5,3]    findWorstP[5,2]  5.3713880517638715e-02
    x[5,3]    findWorstP[5,3]  5.3713880517638715e-02
    x[5,3]    findWorstP[5,4]  5.3713880517638715e-02
    x[5,4]    allocateEach[4]  1
    x[5,4]    findWorstP[1,5]  -6.5215408470402234e-02
    x[5,4]    findWorstP[2,5]  -2.0036616101574012e-01
    x[5,4]    findWorstP[3,5]  -3.6324961138836619e-02
    x[5,4]    findWorstP[4,5]  -3.0832435882094847e-02
    x[5,4]    findWorstP[5,1]  2.7633989245405660e-01
    x[5,4]    findWorstP[5,2]  2.7633989245405660e-01
    x[5,4]    findWorstP[5,3]  2.7633989245405660e-01
    x[5,4]    findWorstP[5,4]  2.7633989245405660e-01
    x[5,5]    allocateEach[5]  1
    x[5,5]    findWorstP[1,5]  -1.0407102246815238e-01
    x[5,5]    findWorstP[2,5]  -1.2815635550905891e-01
    x[5,5]    findWorstP[3,5]  -1.3774577981401182e-01
    x[5,5]    findWorstP[4,5]  -1.7837341948865221e-01
    x[5,5]    findWorstP[5,1]  1.5549843408379127e-01
    x[5,5]    findWorstP[5,2]  1.5549843408379127e-01
    x[5,5]    findWorstP[5,3]  1.5549843408379127e-01
    x[5,5]    findWorstP[5,4]  1.5549843408379127e-01
    x[5,6]    allocateEach[6]  1
    x[5,6]    findWorstP[1,5]  -6.6157915539205248e-02
    x[5,6]    findWorstP[2,5]  -1.7337961862190304e-01
    x[5,6]    findWorstP[3,5]  -2.7140091085112761e-01
    x[5,6]    findWorstP[4,5]  -1.0354592956004946e-01
    x[5,6]    findWorstP[5,1]  1.4143473379424451e-01
    x[5,6]    findWorstP[5,2]  1.4143473379424451e-01
    x[5,6]    findWorstP[5,3]  1.4143473379424451e-01
    x[5,6]    findWorstP[5,4]  1.4143473379424451e-01
    x[5,7]    allocateEach[7]  1
    x[5,7]    findWorstP[1,5]  -1.8333282660910277e-01
    x[5,7]    findWorstP[2,5]  -2.8341813685862374e-02
    x[5,7]    findWorstP[3,5]  -2.4107556791840519e-02
    x[5,7]    findWorstP[4,5]  -1.1066570938534560e-01
    x[5,7]    findWorstP[5,1]  1.6660757548897948e-01
    x[5,7]    findWorstP[5,2]  1.6660757548897948e-01
    x[5,7]    findWorstP[5,3]  1.6660757548897948e-01
    x[5,7]    findWorstP[5,4]  1.6660757548897948e-01
    MARKER    'MARKER'                 'INTEND'
RHS
    RHS1      allocateEach[1]  1
    RHS1      allocateEach[2]  1
    RHS1      allocateEach[3]  1
    RHS1      allocateEach[4]  1
    RHS1      allocateEach[5]  1
    RHS1      allocateEach[6]  1
    RHS1      allocateEach[7]  1
    RHS1      allocateAllCash  1
BOUNDS
 UP BND1      z         1
 MI BND1      cashProportion[1]
 UP BND1      cashProportion[1]  1
 MI BND1      cashProportion[2]
 UP BND1      cashProportion[2]  1
 MI BND1      cashProportion[3]
 UP BND1      cashProportion[3]  1
 MI BND1      cashProportion[4]
 UP BND1      cashProportion[4]  1
 MI BND1      cashProportion[5]
 UP BND1      cashProportion[5]  1
 BV BND1      x[1,1]  
 BV BND1      x[1,2]  
 BV BND1      x[1,3]  
 BV BND1      x[1,4]  
 BV BND1      x[1,5]  
 BV BND1      x[1,6]  
 BV BND1      x[1,7]  
 BV BND1      x[2,1]  
 BV BND1      x[2,2]  
 BV BND1      x[2,3]  
 BV BND1      x[2,4]  
 BV BND1      x[2,5]  
 BV BND1      x[2,6]  
 BV BND1      x[2,7]  
 BV BND1      x[3,1]  
 BV BND1      x[3,2]  
 BV BND1      x[3,3]  
 BV BND1      x[3,4]  
 BV BND1      x[3,5]  
 BV BND1      x[3,6]  
 BV BND1      x[3,7]  
 BV BND1      x[4,1]  
 BV BND1      x[4,2]  
 BV BND1      x[4,3]  
 BV BND1      x[4,4]  
 BV BND1      x[4,5]  
 BV BND1      x[4,6]  
 BV BND1      x[4,7]  
 BV BND1      x[5,1]  
 BV BND1      x[5,2]  
 BV BND1      x[5,3]  
 BV BND1      x[5,4]  
 BV BND1      x[5,5]  
 BV BND1      x[5,6]  
 BV BND1      x[5,7]  
ENDATA
